c --- [ banner ] -------------------------------------------------------------
c 
c CaDiCaL Radically Simplified CDCL SAT Solver
c Copyright (c) 2016-2021 A. Biere, M. Fleury, N. Froleyks
c 
c Version 1.5.2 ca9bff05c11bde5eae4912f9932871d1527e61d8
c g++ (GCC) 9.3.0 -Wall -Wextra -O3 -DNDEBUG
c Sun May 1 02:23:23 EDT 2022 Linux gra-login1 3.10.0-1160.59.1.el7.x86_64 x86_64
c 
c --- [ limit ] --------------------------------------------------------------
c 
c setting conflict limit to 200000 conflicts (due to '200000')
c 
c --- [ parsing input ] ------------------------------------------------------
c 
c reading DIMACS file from '12.cubes782.adj'
c opening file to read '12.cubes782.adj'
c found 'p cnf 5320 924209' header
c parsed 924209 clauses in 8.76 seconds process time
c closing file '12.cubes782.adj'
c after reading 686668107 bytes 654.9 MB
c 
c --- [ options ] ------------------------------------------------------------
c 
c all options are set to their default value
c 
c --- [ solving ] ------------------------------------------------------------
c 
c time measured in process time since initialization
c 
c  seconds   reductions  redundant  irredundant
c          MB    restarts       trail      variables
c           level   conflicts       glue        remaining
c 
c *  8.76 694  0 0   0    0    0  0% 0 923580 3938 74%
c {  9.68 736  0 0   0    0    0  0% 0 923580 3938 74%
c i 10.62 752 82 0   5   72   64 49% 8 923580 3937 74%
c i 10.74 752 87 0   9   89   76 49% 17 923580 3936 74%
c i 11.35 753 45 0  22  235  163 46% 15 923580 3935 74%
c i 11.40 753 45 0  22  237  164 46% 15 923580 3934 74%
c i 11.41 753 45 0  22  238  164 46% 15 923580 3933 74%
c i 11.41 753 44 0  22  239  164 46% 15 923580 3932 74%
c i 11.42 753 44 0  22  240  164 46% 15 923580 3931 74%
c - 13.63 730 46 1  31  301  215 47% 17 131970 3931 74%
c i 13.85 682 33 1  34  545  361 44% 12 131970 3930 74%
c i 13.86 682 34 1  34  567  382 44% 12 131970 3929 74%
c i 13.86 682 34 1  34  569  383 45% 12 131970 3928 74%
c i 13.96 682 36 1  38  596  404 45% 12 131970 3927 74%
c i 14.05 682 38 1  47  636  437 45% 14 131970 3913 74%
c i 14.08 682 38 1  48  640  440 45% 14 131970 3906 73%
c i 14.11 682 38 1  58  676  456 45% 14 131970 3905 73%
c i 14.19 682 38 1  64  702  480 46% 15 131970 3904 73%
c i 14.25 682 39 1  71  726  500 46% 15 131970 3903 73%
c i 14.26 682 39 1  72  731  504 46% 15 131970 3902 73%
c 
c  seconds   reductions  redundant   irredundant
c          MB    restarts       trail       variables
c           level   conflicts       glue         remaining
c 
c i 14.26 682 39 1  73  733  505 46% 15 131970 3901 73%
c i 14.27 682 40 1  73  738  508 46% 16 131970 3899 73%
c i 14.32 682 41 1  81  774  535 46% 17 131970 3898 73%
c i 14.35 682 40 1  83  785  545 46% 17 131970 3897 73%
c i 14.38 682 40 1  86  796  553 46% 16 131970 3870 73%
c i 14.45 682 39 1  89  832  577 46% 16 131970 3869 73%
c i 14.54 682 39 1  94  883  611 47% 17 131970 3854 72%
c - 15.01 730 38 2 105  974  572 46% 16 131208 3854 72%
c } 15.05 730 38 2 105 1002  600 47% 16 131208 3854 72%
c [ 15.05 730  0 2 105 1002  600  0% 0 131208 3854 72%
c O 15.06 730  1 2 105 1003  600 33% 0 131208 3854 72%
c i 15.06 730  0 2 105 1004  600 33% 0 131208 3789 71%
c i 15.06 730  1 2 105 1005  600 32% 0 131208 3768 71%
c i 15.12 730 16 2 105 1082  649 52% 14 131208 3767 71%
c - 15.43 726 17 3 105 1980  874 54% 15 130099 3767 71%
c i 15.65 726 16 3 106 2840 1324 54% 14 130099 3766 71%
c ] 15.67 726 16 3 106 3002 1393 54% 14 130099 3766 71%
c { 15.67 726 38 3 106 3002 1393 47% 16 130099 3766 71%
c F 15.77 711 38 3 106 3006 1396  2% 16 130096 3766 71%
c i 15.77 711 38 3 106 3007 1396  4% 16 130096 3743 70%
c 
c  seconds   reductions  redundant   irredundant
c          MB    restarts       trail       variables
c           level   conflicts       glue         remaining
c 
c i 15.82 711 37 3 106 3040 1423 32% 16 130096 3742 70%
c i 15.82 711 37 3 106 3045 1424 33% 16 130096 3741 70%
c i 15.83 711 36 3 106 3095 1456 33% 16 130096 3739 70%
c i 15.86 711 35 3 106 3153 1503 35% 15 130096 3738 70%
c i 15.86 711 35 3 106 3179 1521 35% 15 130096 3737 70%
c i 15.87 711 34 3 106 3239 1563 36% 15 130096 3736 70%
c - 16.00 667 32 4 106 3322 1218 36% 15 129710 3736 70%
c i 16.13 667 33 4 112 3375 1268 36% 15 129710 3735 70%
c i 16.27 667 33 4 125 3446 1328 35% 15 129710 3734 70%
c i 16.27 667 33 4 125 3448 1329 35% 15 129710 3733 70%
c i 16.41 667 35 4 141 3516 1389 34% 17 129710 3732 70%
c i 16.47 667 36 4 151 3550 1414 34% 17 129710 3731 70%
c i 16.69 667 39 4 194 3718 1544 33% 19 129710 3730 70%
c i 16.69 667 39 4 196 3729 1550 33% 19 129710 3729 70%
c i 16.69 667 39 4 197 3730 1550 33% 19 129710 3728 70%
c i 16.89 667 36 4 217 4212 1871 34% 18 129710 3727 70%
c i 16.96 667 35 4 217 4389 1996 34% 18 129710 3726 70%
c i 16.99 667 34 4 217 4423 2016 34% 18 129710 3725 70%
c i 17.00 667 34 4 217 4435 2027 34% 18 129710 3724 70%
c i 17.06 667 34 4 217 4487 2065 34% 18 129710 3723 70%
c 
c  seconds   reductions  redundant   irredundant
c          MB    restarts       trail       variables
c           level   conflicts       glue         remaining
c 
c i 17.07 667 34 4 219 4507 2078 34% 18 129710 3722 70%
c i 17.32 667 36 4 251 4644 2189 34% 19 129710 3721 70%
c i 17.55 667 35 4 273 4875 2387 34% 19 129710 3720 70%
c - 17.73 709 35 5 273 4992 1912 34% 19 129663 3720 70%
c d 17.87 709 35 5 273 5000 1913 34% 19 100688 3710 70%
c 3 17.88 709 35 5 273 5000 3834 34% 19 100688 3710 70%
c 2 17.91 709 35 5 273 5000 4134 34% 19 100611 3704 70%
c p 18.43 709 35 5 273 5000 11031 34% 19 100611 3578 67%
c d 18.56 709 35 5 273 5000 9918 34% 19 96535 3572 67%
c d 18.60 709 35 5 273 5000 9912 34% 19 96528 3568 67%
c # 18.89 709 30 5 275 6007 10450 35% 17 96528 3568 67%
c - 19.32 667 29 6 386 6997 2614 35% 18 96528 3568 67%
c } 19.33 667 29 6 386 7005 2620 35% 18 96528 3568 67%
c [ 19.33 667 16 6 386 7005 2620 76% 14 96528 3568 67%
c - 19.81 667 18 7 387 9099 2491 56% 16 96528 3568 67%
c I 20.06 667 19 7 388 10009 3027 53% 16 96528 3568 67%
c - 20.54 667 20 8 390 11501 2762 48% 17 96528 3568 67%
c - 21.36 667 20 9 391 14203 2991 44% 17 96528 3568 67%
c 2 21.52 667 19 9 391 15001 5503 43% 17 96508 3568 67%
c p 21.97 667 19 9 391 15001 11506 43% 17 96508 3568 67%
c 
c  seconds   reductions    redundant   irredundant
c          MB    restarts         trail      variables
c           level    conflicts        glue        remaining
c 
c ] 21.99 667 19 9 391 15007 11508 43% 17 96508 3568 67%
c { 21.99 667 29 9 391 15007 11508 35% 18 96508 3568 67%
c B 22.03 667 29 9 392 15012 11513 35% 18 96508 3568 67%
c s 22.44 667 28 9 422 15748 11770 35% 17 94909 3568 67%
c v 23.03 667 28 9 422 15748 11770 35% 17 94808 3568 67%
c w 23.06 667 28 9 422 15748 11765 35% 17 94808 3568 67%
c t 23.07 667 28 9 422 15748 11716 35% 17 94721 3568 67%
c e 23.27 668 28 9 422 15748 5331 35% 17 89712 797 15%
c s 23.35 668 28 9 422 15748 5330 35% 17 89521 797 15%
c - 24.02 668 26 10 429 17203 3576 60% 16 89521 797 15%
c - 25.40 668 25 11 654 20503 4257 61% 17 89521 797 15%
c W 25.54 668 25 11 665 21015 4591 61% 17 89521 797 15%
c - 26.22 668 23 12 723 24107 4584 62% 16 89521 797 15%
c - 27.05 668 21 13 739 28008 4778 62% 15 89521 797 15%
c F 27.07 668 21 13 739 28017 4785 62% 15 89521 797 15%
c 3 27.62 668 21 13 843 30001 6528 62% 15 89521 797 15%
c 2 27.63 668 21 13 843 30001 6536 62% 15 89520 797 15%
c p 27.96 668 21 13 843 30001 8639 62% 15 89520 796 15%
c } 28.18 668 20 13 843 31007 9258 62% 15 89520 796 15%
c [ 28.18 668 19 13 843 31007 9258 203% 17 89520 796 15%
c 
c  seconds   reductions    redundant    irredundant
c          MB     restarts        trail       variables
c           level     conflicts        glue       remaining
c 
c - 28.43 668 19 14 843 32208 5249 187% 16 89517 796 15%
c B 29.42 668 20 14 846 36020 7614 153% 17 89517 796 15%
c - 29.65 668 21 15 846 36708 5851 149% 18 89517 796 15%
c - 30.73 668 25 16 849 41509 6576 127% 21 89517 796 15%
c s 31.11 668 25 16 850 42995 7581 122% 21 89051 796 15%
c v 31.78 668 25 16 850 42995 7581 122% 21 89020 796 15%
c t 31.81 668 25 16 850 42995 7581 122% 21 89019 796 15%
c s 32.10 668 25 16 850 42995 7580 122% 21 88494 796 15%
c W 32.90 668 25 16 850 45023 8904 116% 21 88494 796 15%
c - 33.18 668 25 17 851 46609 6819 113% 21 88494 796 15%
c p 33.92 668 26 17 851 50002 11764 106% 21 88494 796 15%
c - 34.42 668 26 18 851 52010 7268 103% 22 88494 796 15%
c O 35.00 668 26 18 852 55025 9095 98% 22 88494 796 15%
c - 35.55 668 25 19 854 57711 7290 95% 21 88494 796 15%
c ] 36.42 668 24 19 858 63007 10803 90% 20 88494 796 15%
c { 36.42 668 20 19 858 63007 10803 62% 15 88494 796 15%
c - 36.61 668 20 20 877 63714 7583 62% 15 88494 796 15%
c B 37.04 668 20 20 909 66027 8770 62% 15 88494 796 15%
c - 38.26 668 20 21 1169 70014 8021 62% 15 88494 796 15%
c p 39.56 668 19 21 1229 75004 14015 62% 14 88494 796 15%
c 
c  seconds   reductions     redundant   irredundant
c          MB     restarts         trail      variables
c           level      conflicts       glue       remaining
c 
c - 39.86 668 18 22 1250 76615 8496 62% 14 88494 796 15%
c W 40.15 668 18 22 1255 78029 9207 62% 14 88494 796 15%
c - 41.15 668 17 23 1414 83516 8211 62% 14 88494 796 15%
c - 42.44 668 17 24 1598 90719 8417 62% 13 88494 796 15%
c # 42.52 668 17 24 1598 91032 8583 62% 13 88494 796 15%
c - 43.39 668 16 25 1654 98220 8542 62% 13 88494 796 15%
c i 43.58 668 16 25 1685 100028 9441 62% 13 88494 795 15%
c s 43.75 668 16 25 1685 100028 9441 62% 13 87716 795 15%
c v 44.40 668 16 25 1685 100028 9441 62% 13 87635 795 15%
c w 44.47 668 16 25 1685 100028 9441 62% 13 87635 795 15%
c t 44.47 668 16 25 1685 100028 9440 62% 13 87635 795 15%
c e 44.66 668 16 25 1685 100028 9418 62% 13 87528 792 15%
c s 44.83 668 16 25 1685 100028 9417 62% 13 87039 792 15%
c p 46.78 668 16 25 2124 105006 15596 62% 13 87039 792 15%
c B 46.81 668 16 25 2124 105035 15605 62% 13 87039 792 15%
c - 47.22 668 16 26 2193 106020 7832 62% 13 87039 792 15%
c - 50.16 668 17 27 3036 114121 10220 62% 13 87039 792 15%
c W 52.27 668 17 27 3437 120038 14397 62% 13 87039 792 15%
c - 52.88 668 17 28 3517 122522 11479 62% 13 87039 792 15%
c } 54.65 668 17 28 4105 127007 14458 62% 14 87039 792 15%
c 
c  seconds   reductions       redundant   irredundant
c          MB     restarts           trail      variables
c           level      conflicts         glue       remaining
c 
c [ 54.65 668 24 28 4105 127007 14458 90% 20 87039 792 15%
c - 55.55 668 24 29 4106 131224 12308 87% 20 87039 792 15%
c B 56.55 668 24 29 4109 136039 15465 84% 20 87039 792 15%
c 2 57.54 668 24 29 4112 140009 18724 82% 20 87039 792 15%
c p 57.89 668 24 29 4112 140009 21321 82% 20 87039 792 15%
c - 58.02 668 24 30 4112 140224 12663 82% 20 87039 792 15%
c - 60.06 668 24 31 4113 149526 11835 79% 21 87039 792 15%
c W 61.06 668 24 31 4114 153040 14298 78% 21 87039 792 15%
c s 61.63 668 24 31 4114 154269 14952 77% 21 86525 792 15%
c v 62.31 668 24 31 4114 154269 14952 77% 21 86508 792 15%
c w 62.36 668 24 31 4114 154269 14950 77% 21 86508 792 15%
c s 62.79 668 24 31 4114 154269 14950 77% 21 86219 792 15%
c - 64.24 668 24 32 4114 159126 12591 76% 21 86219 792 15%
c - 66.88 668 24 33 4115 169029 12835 74% 20 86219 792 15%
c I 67.33 668 24 33 4117 171042 14032 73% 21 86219 792 15%
c - 69.00 668 24 34 4121 179232 13698 72% 20 86219 792 15%
c p 69.40 668 24 34 4121 180009 17549 72% 21 86219 792 15%
c - 71.65 668 23 35 4128 189733 13736 71% 20 86219 792 15%
c B 71.76 668 23 35 4128 190046 13927 71% 20 86219 792 15%
c ] 74.43 668 24 35 4129 200001 20804 70% 20 86219 792 15%
c 
c  seconds   reductions       redundant   irredundant
c          MB     restarts           trail      variables
c           level      conflicts         glue       remaining
c 
c ? 74.43 668 24 35 4129 200001 20804 70% 20 86219 792 15%
c 
c --- [ writing output ] -----------------------------------------------------
c 
c writing simplified CNF to DIMACS file 'simp/12.cubes782.adj.simp1'
c * 74.43 668 24 35 4129 200001 20804 70% 20 86219 792 15%
c opening file to write 'simp/12.cubes782.adj.simp1'
c writing 'p cnf 5320 86219' header
c closing file 'simp/12.cubes782.adj.simp1'
c after writing 26619995 bytes 25.4 MB
c wrote 86219 clauses in 0.24 seconds process time
c 
c --- [ writing extension ] --------------------------------------------------
c 
c writing extension stack to 'simp/12.cubes782.adj.ext1'
c opening file to write 'simp/12.cubes782.adj.ext1'
c closing file 'simp/12.cubes782.adj.ext1'
c after writing 160294 bytes 0.2 MB
c wrote 7373 witnesses in 0.00 seconds process time
c 
c --- [ result ] -------------------------------------------------------------
c 
c UNKNOWN
c 
c --- [ run-time profiling ] -------------------------------------------------
c 
c process time taken by individual solving procedures
c (percentage relative to process time for solving)
c 
c        57.37   87.35% search
c        28.60   43.55% unstable
c        26.83   40.86% stable
c         8.76   13.34% parse
c         8.31   12.65% simplify
c         2.73    4.16% vivify
c         2.42    3.69% probe
c         1.39    2.12% elim
c         1.25    1.90% subsume
c         1.01    1.54% walk
c         0.92    1.40% lucky
c         0.11    0.17% ternary
c   =================================
c        65.67   87.94% solve
c 
c last line shows process time for solving
c (percentage relative to total process time)
c 
c --- [ statistics ] ---------------------------------------------------------
c 
c chronological:             32152        16.08 %  of conflicts
c conflicts:                200001      3045.46    per second
c decisions:                312423      4757.33    per second
c eliminated:                 2774        52.14 %  of all variables
c fixed:                      1734        32.59 %  of all variables
c learned:                  195712        97.86 %  per conflict
c learned_lits:           27068157       100.00 %  learned literals
c minimized:                     0         0.00 %  learned literals
c shrunken:               16850646        62.25 %  learned literals
c minishrunken:            2059517         7.61 %  learned literals
c propagations:           13727402         0.21 M  per second
c reduced:                   99195        49.60 %  per conflict
c rephased:                     19     10526.37    interval
c restarts:                   4129        48.44    interval
c stabilizing:                   4        57.50 %  of conflicts
c substituted:                  20         0.38 %  of all variables
c subsumed:                  76607         3.26 %  of all clauses
c strengthened:              26365         1.12 %  of all clauses
c ternary:                    7575         0.68 %  of resolved
c vivified:                    281         0.01 %  of all clauses
c walked:                        5     40000.20    interval
c weakened:                   5639         2.94    average size
c 
c seconds are measured in process time for solving
c 
c --- [ resources ] ----------------------------------------------------------
c 
c total process time since initialization:        74.67    seconds
c total real time since initialization:           74.76    seconds
c maximum resident set size of process:          774.32    MB
c 
c --- [ shutting down ] ------------------------------------------------------
c 
c exit 0
WARNING! DIMACS header mismatch: wrong number of variables.
============================[ Problem Statistics ]=============================
|                                                                             |
|  Number of variables:          3659                                         |
|  Number of clauses:           86225                                         |
|  Parse time:                   0.35 s                                       |
|  Simplification time:          0.01 s                                       |
|                                                                             |
============================[ Search Statistics ]====================================================
| Conflicts |          ORIGINAL         |          LEARNT          | Num Sols |      SUBGRAPHS      |
|           |    Vars  Clauses Literals |    Limit  Clauses Lit/Cl |          | Canonical Noncanon. |
=====================================================================================================
|       105 |    3564    86230  5939239 |     2000      105    158 |        0 |        14         5 |
|       257 |    3564    86232  5939282 |     2000      257     87 |        0 |        34         7 |
|       489 |    3564    86239  5939495 |     2000      489     77 |        0 |        37        14 |
|       937 |    3564    86350  5941205 |     2000      937     66 |        0 |        64       125 |
|      1444 |    3564    86351  5941217 |     2000     1444     65 |        0 |        82       126 |
|      2204 |    3564    86352  5941273 |     3605     1209     46 |        0 |        97       127 |
|      3400 |    3564    86409  5942408 |     3605     2405     55 |        0 |       118       184 |
|      5307 |    3564    86608  5945731 |     5002     2509     42 |        0 |       192       383 |
|      7878 |    3564    86617  5945976 |     6304     2582     28 |        0 |       246       392 |
|     11731 |    3564    86626  5946138 |     7557     3288     31 |        0 |       277       401 |
|     17600 |    3564    86729  5948023 |     8785     5385     43 |        0 |       371       504 |
|     26577 |    3564    87057  5952775 |     9997     9974     50 |        0 |       562       832 |
|     39679 |    3564    87185  5955540 |    13606     6285     23 |        0 |       689       960 |
|     60069 |    3564    88114  5968318 |    16008    12477     38 |        0 |       921      1889 |
|     90135 |    3564    88988  5979420 |    19610    16745     41 |        0 |      1099      2763 |
|    134294 |    3564    89358  5983880 |    24411    18105     38 |        0 |      1164      3133 |
|    205295 |    3564    94675  6068085 |    30411    22106     33 |        0 |      2343      8450 |
|    318203 |    3564   109057  6266865 |    37609    34812     42 |        0 |      4334     22832 |
=====================================================================================================
Number of solutions   : 0
Canonical subgraphs   : 5856           (41 /sec)
          order  3    : 1              (200000 /sec)
          order  4    : 1              (500000 /sec)
          order  5    : 1              (200000 /sec)
          order  6    : 1              (52632 /sec)
          order  7    : 1              (8333 /sec)
          order  8    : 3              (1629 /sec)
          order  9    : 8              (392 /sec)
          order 10    : 34             (168 /sec)
          order 11    : 161            (80 /sec)
          order 12    : 830            (56 /sec)
          order 13    : 2447           (42 /sec)
          order 14    : 1961           (37 /sec)
          order 15    : 360            (31 /sec)
          order 16    : 47             (22 /sec)
          order 17    : 0              (-nan /sec)
          order 18    : 0              (-nan /sec)
          order 19    : 0              (-nan /sec)
          order 20    : 0              (-nan /sec)
          order 21    : 0              (-nan /sec)
Noncanonical subgraphs: 34273          (2105 /sec)
          order  3    : 0              (-nan /sec)
          order  4    : 0              (-nan /sec)
          order  5    : 0              (-nan /sec)
          order  6    : 0              (-nan /sec)
          order  7    : 0              (-nan /sec)
          order  8    : 0              (-nan /sec)
          order  9    : 0              (-nan /sec)
          order 10    : 0              (-nan /sec)
          order 11    : 0              (-nan /sec)
          order 12    : 0              (-nan /sec)
          order 13    : 10812          (5400 /sec)
          order 14    : 21377          (1687 /sec)
          order 15    : 1934           (1384 /sec)
          order 16    : 149            (719 /sec)
          order 17    : 1              (244 /sec)
          order 18    : 0              (-nan /sec)
          order 19    : 0              (-nan /sec)
          order 20    : 0              (-nan /sec)
Canonicity checking   : 141.674 s
Noncanonicity checking: 16.28 s
Total canonicity time : 157.954 s
database reductions   : 37
restarts              : 1023
conflicts             : 474420         (1969 /sec)
decisions             : 634274         (0.00 % random) (2632 /sec)
propagations          : 23287509       (96646 /sec)
conflict literals     : 32357201       (54.45 % deleted)
actual reward         : 0.225425
Memory used           : 95.00 MB
CPU time              : 240.957 s

UNSATISFIABLE
